db/data/27687111958100250881144717680127909794.z3.out
sat
-------------------
.440209180
